Version identifier: 12.10.0.0 | 2019-11-26 | 843d4de
CPXPARAM_Read_DataCheck                          1
CPXPARAM_RandomSeed                              201903125
CPXPARAM_TimeLimit                               7200
Parallel mode: deterministic, using up to 8 threads for concurrent optimization:
 * Starting dual Simplex on 1 thread...
 * Starting Barrier on 6 threads...
 * Starting primal Simplex on 1 thread...
Tried aggregator 1 time.
No LP presolve or aggregator reductions.
Presolve time = 0.00 sec. (4.39 ticks)

Iteration log . . .
Iteration:     1   Dual objective     =           990.000000
Perturbation started.
Iteration:   101   Dual objective     =           990.000000
Iteration:   222   Dual objective     =           990.015537
Iteration:   436   Dual objective     =           990.024333
Iteration:   658   Dual objective     =           990.024337
Iteration:   882   Dual objective     =           990.024340
Iteration:  1105   Dual objective     =           990.024342
Iteration:  1336   Dual objective     =           990.024344
Iteration:  1576   Dual objective     =           990.024345
Iteration:  1806   Dual objective     =           990.024346
Removing perturbation.

Dual simplex solved model.

